benchmarks_vrp/CMT11/no_cluster/CMT11_5.vrp
NAME: CMT11_5
TYPE: CVRP
COMMENT: 1042.11 - Cluster Nr.5
DIMENSION: 16
CAPACITY: 200
EDGE_WEIGHT_TYPE: EUC_2D
NODE_COORD_TYPE: TWOD_COORDS
NODE_COORD_SECTION: 
16 92 52
3 86 46
4 89 46
1 85 55
9 94 44
2 99 50
8 92 42
11 10 45
15 89 52
6 94 42
10 94 48
7 86 41
5 89 43
12 99 46
14 96 42
13 86 44
DEPOT_SECTION: 
11
-1
DEMAND_SECTION: 
10 13
3 12
12 4
11 0
15 16
9 7
6 11
16 9
14 5
2 21
7 18
13 14
4 14
5 20
8 10
1 17
EOF
