benchmarks_vrp/CMT11/no_cluster/CMT11_5.tour
NAME: CMT11_5 solution
TYPE: TOUR
TOUR_SECTION:
11 1 15 16 10 2 12 14 6 9 8 5 4 3 13 7 -1
-1
EOF